decision_x1=[0,7];
decision_x2=[0,7];
decision_x3=[0,7];
decision_x4=[0,7];
decision_x5=[0,7];
decision_x6=[0,7];
decision_x7=[0,7];
decision_x8=[0,7];
decision_x9=[0,7];
decision_x10=[0,7];
decision_x11=[0,7];
decision_x12=[0,7];
decision_x13=[0,7];
decision_x14=[0,7];
random_y1=[0,7];
random_y2=[0,7];
random_y3=[0,7];
random_y4=[0,7];
random_y5=[0,7];
random_y6=[0,7];
constraint_x2_x1=[
0,0,1.4|
0,1,0.95|
0,2,9.8|
0,3,4.3|
0,4,7.6|
0,5,5.6|
0,6,2.1|
0,7,8.1|
1,0,7.9|
1,1,5.2|
1,2,4.2|
1,3,6.4|
1,4,8.5|
1,5,7|
1,6,9.8|
1,7,7.4|
2,0,6.9|
2,1,1.6|
2,2,9.5|
2,3,1.8|
2,4,9.8|
2,5,3|
2,6,5.4|
2,7,6.2|
3,0,7.5|
3,1,7|
3,2,2.9|
3,3,4.8|
3,4,6.3|
3,5,1.3|
3,6,8|
3,7,3.8|
4,0,2.1|
4,1,3.7|
4,2,3.1|
4,3,3.8|
4,4,3.6|
4,5,1.6|
4,6,1.9|
4,7,5.3|
5,0,0.096|
5,1,9.5|
5,2,8.4|
5,3,6.6|
5,4,3.2|
5,5,5.7|
5,6,0.21|
5,7,5.1|
6,0,8.6|
6,1,7.6|
6,2,6.3|
6,3,3.8|
6,4,0.65|
6,5,8.8|
6,6,2|
6,7,6.6|
7,0,0.076|
7,1,6.6|
7,2,8.8|
7,3,1.4|
7,4,7.4|
7,5,2.2|
7,6,1.6|
7,7,3.5|
];
constraint_x3_x2=[
0,0,2.4|
0,1,5.4|
0,2,7.9|
0,3,1.7|
0,4,1.3|
0,5,9.2|
0,6,4.3|
0,7,4.6|
1,0,1.1|
1,1,5.9|
1,2,3|
1,3,8.4|
1,4,1.6|
1,5,2.4|
1,6,2.4|
1,7,5.4|
2,0,5.1|
2,1,4.1|
2,2,1.8|
2,3,9.6|
2,4,9.9|
2,5,7.4|
2,6,3.6|
2,7,5.3|
3,0,7.7|
3,1,9.8|
3,2,8.9|
3,3,1.3|
3,4,6.9|
3,5,9.5|
3,6,4.7|
3,7,7.6|
4,0,0.37|
4,1,7.1|
4,2,0.8|
4,3,7|
4,4,8.5|
4,5,2.8|
4,6,7|
4,7,1.7|
5,0,6.6|
5,1,6.5|
5,2,0.15|
5,3,1.5|
5,4,9.5|
5,5,9|
5,6,6.3|
5,7,8|
6,0,9.2|
6,1,5.3|
6,2,2.1|
6,3,2.4|
6,4,5.5|
6,5,9.5|
6,6,7.4|
6,7,7.8|
7,0,6|
7,1,10|
7,2,7.5|
7,3,9.8|
7,4,8.9|
7,5,4.9|
7,6,0.66|
7,7,2.1|
];
constraint_x4_x3=[
0,0,7.5|
0,1,0.32|
0,2,5.7|
0,3,6.8|
0,4,6.5|
0,5,1|
0,6,2.5|
0,7,7.9|
1,0,0.89|
1,1,1.4|
1,2,9.2|
1,3,1.8|
1,4,4.8|
1,5,3|
1,6,7.6|
1,7,9.3|
2,0,4.6|
2,1,2.2|
2,2,8.7|
2,3,9.5|
2,4,4.2|
2,5,5.9|
2,6,3.5|
2,7,7.7|
3,0,7.4|
3,1,8.8|
3,2,5.4|
3,3,8.3|
3,4,0.76|
3,5,0.84|
3,6,6.1|
3,7,9.1|
4,0,6.6|
4,1,4.6|
4,2,0.52|
4,3,8|
4,4,3.9|
4,5,4.1|
4,6,2.2|
4,7,1.9|
5,0,4.9|
5,1,3.9|
5,2,2.2|
5,3,2.6|
5,4,3.7|
5,5,5.8|
5,6,5.8|
5,7,0.77|
6,0,2|
6,1,8.3|
6,2,0.73|
6,3,5.2|
6,4,3.1|
6,5,1.1|
6,6,7.1|
6,7,5.4|
7,0,8.9|
7,1,4.9|
7,2,1.9|
7,3,8|
7,4,2.5|
7,5,3|
7,6,3.8|
7,7,4.9|
];
constraint_x5_x1=[
0,0,4.2|
0,1,8.3|
0,2,2.9|
0,3,6.1|
0,4,0.52|
0,5,7.5|
0,6,0.84|
0,7,0.84|
1,0,0.93|
1,1,7.8|
1,2,1.8|
1,3,6.6|
1,4,5.2|
1,5,7.9|
1,6,2|
1,7,4.9|
2,0,4.1|
2,1,0.73|
2,2,4.5|
2,3,4.1|
2,4,9|
2,5,2.6|
2,6,5.2|
2,7,3.8|
3,0,8.6|
3,1,5.6|
3,2,4.1|
3,3,9.8|
3,4,8.4|
3,5,5.9|
3,6,3.2|
3,7,9.6|
4,0,6.2|
4,1,3.5|
4,2,6.7|
4,3,0.89|
4,4,4.2|
4,5,3.1|
4,6,7.8|
4,7,8|
5,0,8.1|
5,1,6.5|
5,2,6.9|
5,3,9.8|
5,4,3.9|
5,5,9.8|
5,6,2.3|
5,7,5.8|
6,0,4.7|
6,1,7.8|
6,2,9.1|
6,3,1.3|
6,4,9.1|
6,5,4.4|
6,6,8.6|
6,7,4.1|
7,0,5.7|
7,1,2|
7,2,6.6|
7,3,4.8|
7,4,0.89|
7,5,4.2|
7,6,8.4|
7,7,4|
];
constraint_x6_x2=[
0,0,9.9|
0,1,8|
0,2,8.6|
0,3,7|
0,4,2.3|
0,5,8.7|
0,6,8.3|
0,7,8.2|
1,0,1.9|
1,1,1.3|
1,2,6.8|
1,3,3.1|
1,4,4.8|
1,5,2.4|
1,6,1.5|
1,7,8.7|
2,0,9.3|
2,1,0.39|
2,2,8.7|
2,3,7.3|
2,4,9.3|
2,5,1|
2,6,8.8|
2,7,6.9|
3,0,8.8|
3,1,4.7|
3,2,9|
3,3,4.6|
3,4,2|
3,5,6.7|
3,6,4.3|
3,7,0.71|
4,0,1.5|
4,1,1.8|
4,2,3.9|
4,3,6|
4,4,2.3|
4,5,9.4|
4,6,1.6|
4,7,6.5|
5,0,2.7|
5,1,9|
5,2,8.6|
5,3,6|
5,4,2.2|
5,5,1.4|
5,6,9.1|
5,7,5.1|
6,0,4.4|
6,1,4.6|
6,2,2.8|
6,3,4.9|
6,4,8.1|
6,5,5.5|
6,6,9.6|
6,7,4.5|
7,0,5.8|
7,1,8.7|
7,2,8.1|
7,3,7|
7,4,6.3|
7,5,0.27|
7,6,10|
7,7,1.9|
];
constraint_x7_x3=[
0,0,7.5|
0,1,6.2|
0,2,2.3|
0,3,8.5|
0,4,8.8|
0,5,7|
0,6,9.6|
0,7,5.7|
1,0,8.9|
1,1,5.6|
1,2,9.5|
1,3,4.3|
1,4,0.83|
1,5,3.2|
1,6,3|
1,7,4.6|
2,0,8.8|
2,1,8.3|
2,2,0.17|
2,3,3.8|
2,4,8.4|
2,5,6.6|
2,6,6|
2,7,6.6|
3,0,4.3|
3,1,4|
3,2,4.8|
3,3,6.6|
3,4,0.12|
3,5,8|
3,6,4.9|
3,7,2.2|
4,0,0.28|
4,1,4.1|
4,2,1.4|
4,3,6.5|
4,4,4.8|
4,5,5|
4,6,9.4|
4,7,9.5|
5,0,8.4|
5,1,4.8|
5,2,2.6|
5,3,5.4|
5,4,5.5|
5,5,6.1|
5,6,0.34|
5,7,3.1|
6,0,3.4|
6,1,9.9|
6,2,2.7|
6,3,9.6|
6,4,9.3|
6,5,8.5|
6,6,3.7|
6,7,5.2|
7,0,9.1|
7,1,8.3|
7,2,6|
7,3,4.2|
7,4,3.9|
7,5,9.5|
7,6,9|
7,7,7.1|
];
constraint_x8_x4=[
0,0,2.9|
0,1,8.4|
0,2,5.3|
0,3,8.1|
0,4,1.2|
0,5,7.2|
0,6,2.6|
0,7,6.4|
1,0,9.5|
1,1,8.4|
1,2,5.9|
1,3,8|
1,4,3.1|
1,5,5.4|
1,6,4.2|
1,7,4.5|
2,0,5.3|
2,1,4.9|
2,2,9.7|
2,3,2.7|
2,4,6|
2,5,0.46|
2,6,2|
2,7,8.5|
3,0,0.99|
3,1,8.7|
3,2,2.8|
3,3,2.5|
3,4,0.22|
3,5,5.8|
3,6,2.7|
3,7,3.9|
4,0,0.097|
4,1,1.5|
4,2,0.61|
4,3,5.3|
4,4,1.6|
4,5,2.1|
4,6,5.4|
4,7,1.4|
5,0,2.4|
5,1,2.9|
5,2,5.8|
5,3,7.3|
5,4,1.6|
5,5,7.5|
5,6,1.7|
5,7,9.9|
6,0,7.2|
6,1,4.1|
6,2,8.6|
6,3,2|
6,4,4.7|
6,5,3.7|
6,6,2.5|
6,7,3.5|
7,0,5.2|
7,1,3.2|
7,2,3.9|
7,3,9.3|
7,4,3.5|
7,5,1.6|
7,6,8.8|
7,7,6.3|
];
constraint_x9_x5=[
0,0,8.4|
0,1,2.5|
0,2,4.2|
0,3,8.2|
0,4,6.3|
0,5,6.2|
0,6,5.3|
0,7,9.9|
1,0,6.4|
1,1,7|
1,2,5.3|
1,3,8.1|
1,4,2.2|
1,5,3.9|
1,6,3.6|
1,7,9.6|
2,0,9.6|
2,1,3.9|
2,2,1.8|
2,3,8.2|
2,4,3.4|
2,5,6.7|
2,6,7.5|
2,7,6.1|
3,0,8.7|
3,1,9.4|
3,2,8.7|
3,3,9.1|
3,4,1.6|
3,5,1.3|
3,6,5.3|
3,7,0.47|
4,0,0.62|
4,1,6|
4,2,6.6|
4,3,6.4|
4,4,7.2|
4,5,5.8|
4,6,8.3|
4,7,5.7|
5,0,2.5|
5,1,6.3|
5,2,3.2|
5,3,9.4|
5,4,6.6|
5,5,8.3|
5,6,1.9|
5,7,4.9|
6,0,9.3|
6,1,4.8|
6,2,4.6|
6,3,5.6|
6,4,5|
6,5,1.8|
6,6,2.7|
6,7,6.1|
7,0,6.9|
7,1,7.6|
7,2,5.8|
7,3,8.3|
7,4,9.5|
7,5,2.9|
7,6,8.4|
7,7,2.9|
];
constraint_x10_x6=[
0,0,0.85|
0,1,7.8|
0,2,0.43|
0,3,0.73|
0,4,9.1|
0,5,7.5|
0,6,1.8|
0,7,6.2|
1,0,1.5|
1,1,5.7|
1,2,3.8|
1,3,5.5|
1,4,4.6|
1,5,9|
1,6,4.9|
1,7,0.45|
2,0,8.1|
2,1,6.8|
2,2,2|
2,3,9.2|
2,4,6.6|
2,5,1.8|
2,6,4.1|
2,7,6.1|
3,0,0.22|
3,1,4.9|
3,2,2.7|
3,3,3.1|
3,4,7.1|
3,5,3.8|
3,6,7.2|
3,7,0.44|
4,0,5.3|
4,1,7.9|
4,2,4.6|
4,3,4.3|
4,4,5.8|
4,5,4.8|
4,6,9.9|
4,7,2.9|
5,0,0.84|
5,1,3.7|
5,2,9.4|
5,3,7.8|
5,4,0.58|
5,5,0.099|
5,6,7.2|
5,7,3.8|
6,0,1.8|
6,1,1.4|
6,2,6.2|
6,3,3.4|
6,4,1.5|
6,5,9.3|
6,6,3.3|
6,7,2.3|
7,0,0.22|
7,1,1.5|
7,2,2.5|
7,3,1|
7,4,4.3|
7,5,4.2|
7,6,2.3|
7,7,9|
];
constraint_x11_x7=[
0,0,8.3|
0,1,3.3|
0,2,5.8|
0,3,3.3|
0,4,2|
0,5,8.2|
0,6,7.9|
0,7,2.7|
1,0,3|
1,1,3.8|
1,2,7.3|
1,3,9.5|
1,4,7.8|
1,5,4.8|
1,6,1.6|
1,7,0.53|
2,0,8.2|
2,1,3|
2,2,3.2|
2,3,5.3|
2,4,1.1|
2,5,6.5|
2,6,4.5|
2,7,6.9|
3,0,1.2|
3,1,1.3|
3,2,3.1|
3,3,2.3|
3,4,3.3|
3,5,6.2|
3,6,9.3|
3,7,2.4|
4,0,1|
4,1,5.5|
4,2,4.9|
4,3,3.5|
4,4,3.2|
4,5,8.2|
4,6,2.3|
4,7,9|
5,0,2.5|
5,1,6.6|
5,2,2.4|
5,3,5.9|
5,4,5.1|
5,5,7.3|
5,6,2.4|
5,7,3.7|
6,0,0.11|
6,1,4.7|
6,2,3.2|
6,3,0.79|
6,4,2|
6,5,4.4|
6,6,4.6|
6,7,5.1|
7,0,5.9|
7,1,2.8|
7,2,8.8|
7,3,2.6|
7,4,5.8|
7,5,9.1|
7,6,0.73|
7,7,2.1|
];
constraint_x12_x8=[
0,0,6.4|
0,1,4.4|
0,2,8.6|
0,3,4.2|
0,4,0.97|
0,5,5.4|
0,6,7.6|
0,7,10|
1,0,1.6|
1,1,4.9|
1,2,3.9|
1,3,9.3|
1,4,7.3|
1,5,10|
1,6,6.7|
1,7,5.9|
2,0,7.2|
2,1,4.5|
2,2,1|
2,3,9.4|
2,4,4.6|
2,5,4.2|
2,6,1.6|
2,7,0.28|
3,0,6|
3,1,3|
3,2,6.7|
3,3,5|
3,4,0.052|
3,5,4.5|
3,6,2.7|
3,7,6.7|
4,0,6.5|
4,1,3.2|
4,2,0.45|
4,3,6.2|
4,4,6.2|
4,5,5.9|
4,6,3.1|
4,7,0.79|
5,0,7.6|
5,1,5.4|
5,2,4.2|
5,3,3.5|
5,4,7.1|
5,5,3.4|
5,6,3.3|
5,7,8.9|
6,0,0.98|
6,1,1.4|
6,2,3.1|
6,3,5.2|
6,4,4.8|
6,5,7.2|
6,6,8.4|
6,7,8.9|
7,0,5.8|
7,1,6.3|
7,2,1.9|
7,3,0.55|
7,4,8.4|
7,5,5.1|
7,6,8.7|
7,7,4.5|
];
constraint_x13_x9=[
0,0,4.4|
0,1,5|
0,2,8.6|
0,3,7.1|
0,4,8.7|
0,5,3.8|
0,6,7|
0,7,4.7|
1,0,6.6|
1,1,3.3|
1,2,0.65|
1,3,3.9|
1,4,2.7|
1,5,2.2|
1,6,1.2|
1,7,9.6|
2,0,8.8|
2,1,0.96|
2,2,0.22|
2,3,8.6|
2,4,6.1|
2,5,5.2|
2,6,3.7|
2,7,2|
3,0,1.9|
3,1,3.7|
3,2,3|
3,3,2.1|
3,4,4.8|
3,5,8.2|
3,6,2.4|
3,7,6.7|
4,0,4.4|
4,1,8.5|
4,2,1.6|
4,3,0.87|
4,4,3.7|
4,5,2.1|
4,6,2.5|
4,7,1.1|
5,0,3.6|
5,1,9.7|
5,2,8.8|
5,3,1.2|
5,4,6.4|
5,5,6.3|
5,6,4.1|
5,7,8.1|
6,0,1.2|
6,1,1.9|
6,2,1.7|
6,3,9.7|
6,4,0.7|
6,5,4.8|
6,6,7.5|
6,7,4.5|
7,0,1.9|
7,1,2.9|
7,2,8.7|
7,3,7.9|
7,4,1.3|
7,5,4.8|
7,6,2.4|
7,7,4.9|
];
constraint_x14_x10=[
0,0,9.6|
0,1,8.1|
0,2,6.5|
0,3,8.9|
0,4,6.8|
0,5,3.3|
0,6,9.6|
0,7,9.3|
1,0,7.1|
1,1,6.4|
1,2,0.98|
1,3,6|
1,4,2.9|
1,5,1.6|
1,6,7.9|
1,7,9.1|
2,0,5.4|
2,1,0.34|
2,2,5.8|
2,3,9.2|
2,4,4.2|
2,5,8.1|
2,6,8.9|
2,7,4.8|
3,0,5|
3,1,0.9|
3,2,4.8|
3,3,0.4|
3,4,9.3|
3,5,6.1|
3,6,8.1|
3,7,4.9|
4,0,8.5|
4,1,10|
4,2,3.4|
4,3,5|
4,4,6.4|
4,5,4.3|
4,6,6.4|
4,7,5.2|
5,0,9.7|
5,1,0.6|
5,2,9.7|
5,3,3|
5,4,8.4|
5,5,3.8|
5,6,5|
5,7,9|
6,0,0.78|
6,1,0.76|
6,2,2.2|
6,3,5.4|
6,4,6.6|
6,5,3.4|
6,6,9|
6,7,2.5|
7,0,0.73|
7,1,2.8|
7,2,7|
7,3,0.59|
7,4,6.3|
7,5,3|
7,6,9|
7,7,6.5|
];
constraint_x1_y1=[
0,0,9.9|
0,1,1.6|
0,2,8.2|
0,3,4.2|
0,4,2.2|
0,5,0.047|
0,6,10|
0,7,4.4|
1,0,6.1|
1,1,1.6|
1,2,8.1|
1,3,1.8|
1,4,6.5|
1,5,8.6|
1,6,8|
1,7,6.8|
2,0,6|
2,1,1.3|
2,2,7.8|
2,3,8.1|
2,4,8.3|
2,5,6.8|
2,6,5.3|
2,7,6.7|
3,0,9.6|
3,1,8.6|
3,2,9.7|
3,3,7.4|
3,4,4.9|
3,5,2.1|
3,6,3.2|
3,7,4.4|
4,0,3.1|
4,1,4.8|
4,2,2|
4,3,5.3|
4,4,1.1|
4,5,1|
4,6,5.4|
4,7,2.7|
5,0,5.3|
5,1,6.1|
5,2,1.1|
5,3,0.79|
5,4,2|
5,5,9.2|
5,6,8.1|
5,7,1.1|
6,0,3.5|
6,1,8.3|
6,2,3.4|
6,3,2.7|
6,4,8.2|
6,5,4.3|
6,6,2.5|
6,7,0.37|
7,0,9.4|
7,1,6.5|
7,2,9.8|
7,3,9.9|
7,4,8.7|
7,5,0.79|
7,6,6.3|
7,7,5.8|
];
constraint_x2_y2=[
0,0,3.1|
0,1,0.35|
0,2,3.8|
0,3,8.2|
0,4,8.4|
0,5,3.3|
0,6,7.9|
0,7,5.2|
1,0,3.3|
1,1,2.6|
1,2,4.5|
1,3,1.2|
1,4,9.4|
1,5,7.5|
1,6,7.2|
1,7,5.2|
2,0,3.5|
2,1,8.1|
2,2,8.2|
2,3,0.39|
2,4,3.1|
2,5,3.9|
2,6,7.3|
2,7,0.013|
3,0,7.7|
3,1,8.5|
3,2,5.5|
3,3,1.4|
3,4,0.91|
3,5,6|
3,6,6.4|
3,7,7.3|
4,0,0.046|
4,1,4.7|
4,2,2.6|
4,3,8.5|
4,4,2.9|
4,5,5.1|
4,6,7.8|
4,7,4.8|
5,0,4.7|
5,1,7.1|
5,2,0.54|
5,3,0.86|
5,4,6|
5,5,5.9|
5,6,2.7|
5,7,6|
6,0,0.054|
6,1,3.1|
6,2,8.7|
6,3,0.66|
6,4,4.4|
6,5,6|
6,6,8.2|
6,7,0.34|
7,0,9.3|
7,1,5.8|
7,2,5.1|
7,3,8.4|
7,4,5.2|
7,5,8|
7,6,9.3|
7,7,5.5|
];
constraint_x3_y3=[
0,0,7.4|
0,1,9.7|
0,2,8.8|
0,3,1.6|
0,4,2|
0,5,8.3|
0,6,2.3|
0,7,3.9|
1,0,9.2|
1,1,7|
1,2,7|
1,3,3.3|
1,4,5.1|
1,5,5.6|
1,6,8.6|
1,7,5.2|
2,0,1.6|
2,1,6.8|
2,2,9.3|
2,3,9.6|
2,4,9.8|
2,5,3.8|
2,6,4.8|
2,7,3.1|
3,0,0.84|
3,1,0.44|
3,2,4.4|
3,3,8.5|
3,4,0.47|
3,5,9.5|
3,6,8.6|
3,7,8.6|
4,0,7|
4,1,2.1|
4,2,0.64|
4,3,2|
4,4,6.8|
4,5,6.1|
4,6,8.5|
4,7,4.1|
5,0,2|
5,1,4.6|
5,2,3.6|
5,3,9|
5,4,6.4|
5,5,2.4|
5,6,1.9|
5,7,3.7|
6,0,3|
6,1,7.1|
6,2,9.7|
6,3,3.9|
6,4,4|
6,5,8.9|
6,6,8.7|
6,7,4.6|
7,0,6.7|
7,1,4|
7,2,2.4|
7,3,6.9|
7,4,7.7|
7,5,2.2|
7,6,7.5|
7,7,0.5|
];
constraint_x4_y4=[
0,0,7.2|
0,1,7.1|
0,2,8.1|
0,3,5.8|
0,4,1.5|
0,5,9.6|
0,6,2.8|
0,7,4.6|
1,0,8.4|
1,1,0.89|
1,2,7.1|
1,3,4.8|
1,4,3.8|
1,5,6.5|
1,6,4.7|
1,7,8.1|
2,0,1.8|
2,1,9.3|
2,2,5|
2,3,8.1|
2,4,1.6|
2,5,1.8|
2,6,1.4|
2,7,2|
3,0,8.6|
3,1,3.3|
3,2,7|
3,3,3.7|
3,4,9.7|
3,5,7.5|
3,6,8.9|
3,7,5.1|
4,0,8.6|
4,1,8.9|
4,2,3.7|
4,3,9.1|
4,4,8.4|
4,5,3.7|
4,6,4.4|
4,7,9.4|
5,0,9|
5,1,6.8|
5,2,7|
5,3,0.88|
5,4,3.4|
5,5,9.7|
5,6,6.6|
5,7,3.7|
6,0,8.4|
6,1,3.6|
6,2,6.4|
6,3,5.1|
6,4,4.3|
6,5,5.6|
6,6,2.7|
6,7,3.3|
7,0,6.2|
7,1,0.5|
7,2,4.2|
7,3,8.2|
7,4,4.4|
7,5,6.5|
7,6,3.8|
7,7,3.3|
];
constraint_x5_y5=[
0,0,8.7|
0,1,8.9|
0,2,2.1|
0,3,4.9|
0,4,6.4|
0,5,7.6|
0,6,5.6|
0,7,7|
1,0,1.8|
1,1,9.6|
1,2,5.8|
1,3,3.4|
1,4,3.2|
1,5,1.9|
1,6,2.6|
1,7,9.3|
2,0,9.7|
2,1,1.6|
2,2,1.6|
2,3,7.8|
2,4,0.22|
2,5,5.4|
2,6,2.7|
2,7,9.6|
3,0,3.6|
3,1,9.3|
3,2,1.4|
3,3,2.5|
3,4,8|
3,5,7.5|
3,6,5.3|
3,7,8.3|
4,0,8.3|
4,1,2.7|
4,2,2.1|
4,3,2.9|
4,4,9.5|
4,5,2.3|
4,6,5.7|
4,7,8.1|
5,0,8.9|
5,1,5|
5,2,9.8|
5,3,8|
5,4,3.2|
5,5,3.6|
5,6,7.9|
5,7,3.2|
6,0,5.2|
6,1,4.8|
6,2,9.2|
6,3,8.8|
6,4,4.9|
6,5,3|
6,6,5.3|
6,7,9.3|
7,0,2|
7,1,3.9|
7,2,0.31|
7,3,6.1|
7,4,6.1|
7,5,8.4|
7,6,5.3|
7,7,0.36|
];
constraint_x6_y6=[
0,0,3.6|
0,1,9.3|
0,2,3.8|
0,3,8.2|
0,4,6.7|
0,5,5.3|
0,6,2.6|
0,7,6.8|
1,0,4.4|
1,1,8.4|
1,2,2.8|
1,3,1.8|
1,4,8.3|
1,5,7.5|
1,6,2.9|
1,7,0.5|
2,0,6|
2,1,0.78|
2,2,3|
2,3,9.9|
2,4,4.1|
2,5,2.3|
2,6,2.8|
2,7,10|
3,0,0.35|
3,1,2.3|
3,2,7.4|
3,3,9.7|
3,4,7.4|
3,5,8.7|
3,6,5.3|
3,7,1|
4,0,8|
4,1,0.17|
4,2,3.9|
4,3,4|
4,4,7.5|
4,5,1.9|
4,6,9.4|
4,7,5.8|
5,0,5.3|
5,1,6.3|
5,2,0.59|
5,3,7.2|
5,4,4.8|
5,5,0.39|
5,6,2|
5,7,8.9|
6,0,1.7|
6,1,0.67|
6,2,4.5|
6,3,1.9|
6,4,5.3|
6,5,3.1|
6,6,1.5|
6,7,4.9|
7,0,1.2|
7,1,9|
7,2,8.3|
7,3,9.1|
7,4,5.6|
7,5,9.3|
7,6,3.7|
7,7,4.9|
];
initial_distribution_y1=[0.19,0.18,0.0041,0.2,0.11,0.096,0.13,0.094];
initial_distribution_y2=[0.21,0.17,0.086,0.035,0.2,0.038,0.098,0.17];
initial_distribution_y3=[0.16,0.2,0.15,0.011,0.073,0.2,0.07,0.15];
initial_distribution_y4=[0.06,0.034,0.11,0.12,0.12,0.19,0.25,0.13];
initial_distribution_y5=[0.15,0.12,0.053,0.039,0.24,0.18,0.024,0.19];
initial_distribution_y6=[0.11,0.16,0.0044,0.18,0.12,0.18,0.11,0.14];
transition_y1=[
0.042,0.074,0.082,0.01,0.25,0.29,0.14,0.11|
0.012,0.2,0.22,0.012,0.1,0.21,0.074,0.17|
0.31,0.01,0.17,0.16,0.022,0.036,0.059,0.24|
0.052,0.068,0.13,0.17,0.15,0.16,0.18,0.081|
0.087,0.18,0.1,0.18,0.13,0.062,0.16,0.086|
0.12,0.14,0.094,0.018,0.26,0.11,0.13,0.13|
0.082,0.15,0.15,0.024,0.14,0.15,0.14,0.16|
0.15,0.042,0.065,0.18,0.29,0.052,0.043,0.18|
];
transition_y2=[
0.17,0.054,0.2,0.12,0.21,0.17,0.051,0.038|
0.17,0.047,0.095,0.15,0.11,0.2,0.0028,0.22|
0.041,0.13,0.18,0.012,0.19,0.24,0.18,0.013|
0.13,0.016,0.2,0.22,0.19,0.22,0.035,0.0035|
0.0071,0.16,0.16,0.17,0.062,0.18,0.16,0.091|
0.13,0.16,0.061,0.29,0.041,0.076,0.15,0.092|
0.16,0.14,0.12,0.11,0.09,0.048,0.15,0.18|
0.1,0.19,0.054,0.049,0.2,0.2,0.14,0.07|
];
transition_y3=[
0.25,0.0069,0.2,0.08,0.11,0.07,0.21,0.073|
0.12,0.3,0.034,0.018,0.32,0.06,0.074,0.08|
0.02,0.0077,0.15,0.19,0.066,0.22,0.12,0.24|
0.15,0.085,0.19,0.16,0.15,0.017,0.16,0.082|
0.015,0.053,0.19,0.07,0.19,0.24,0.12,0.12|
0.0037,0.3,0.027,0.13,0.082,0.24,0.19,0.025|
0.21,0.24,0.11,0.063,0.24,0.0068,0.046,0.08|
0.068,0.093,0.26,0.0076,0.093,0.18,0.035,0.26|
];
transition_y4=[
0.21,0.014,0.16,0.0069,0.15,0.17,0.19,0.09|
0.19,0.15,0.25,0.035,0.11,0.038,0.058,0.17|
0.025,0.23,0.14,0.15,0.039,0.12,0.061,0.25|
0.19,0.039,0.12,0.19,0.16,0.11,0.047,0.13|
0.085,0.14,0.082,0.2,0.11,0.2,0.13,0.051|
0.029,0.18,0.063,0.024,0.29,0.2,0.2,0.016|
0.17,0.094,0.056,0.17,0.16,0.17,0.081,0.1|
0.18,0.056,0.17,0.14,0.19,0.12,0.11,0.027|
];
transition_y5=[
0.19,0.16,0.031,0.0076,0.19,0.2,0.019,0.2|
0.057,0.17,0.027,0.12,0.16,0.15,0.18,0.14|
0.065,0.029,0.031,0.16,0.23,0.2,0.18,0.11|
0.088,0.2,0.22,0.11,0.1,0.013,0.2,0.064|
0.22,0.012,0.097,0.085,0.077,0.31,0.17,0.03|
0.13,0.16,0.11,0.15,0.091,0.13,0.15,0.076|
0.032,0.15,0.17,0.22,0.15,0.0078,0.2,0.072|
0.014,0.0054,0.066,0.27,0.15,0.26,0.023,0.21|
];
transition_y6=[
0.17,0.14,0.16,0.015,0.18,0.11,0.15,0.07|
0.081,0.053,0.11,0.073,0.085,0.27,0.31,0.025|
0.079,0.27,0.22,0.2,0.054,0.11,0.056,0.006|
0.2,0.14,0.14,0.12,0.16,0.095,0.038,0.098|
0.14,0.19,0.21,0.043,0.053,0.091,0.095,0.18|
0.064,0.16,0.0098,0.14,0.054,0.17,0.18,0.22|
0.18,0.13,0.1,0.12,0.017,0.077,0.15,0.22|
0.019,0.13,0.18,0.13,0.15,0.18,0.16,0.047|
];
